RSW06
Position Depot: Center
Horizon for Depot: Small
Position of customers: Random
Distribution of the demand: Medium
Width of time windows: Wide
Distribution of the service: Large

VEHICLE 
NUMBER 	 CAPACITY 
 5 	 	 315 
 
CUSTOMER
CUST NO. 	 XCOORD.  	 YCOORD. 	 DEMAND 	 READY TIME 	 DUE DATE 	 SERVICE TIME 
 0 	 	 500 	 	 500 	 	 0 	 	 0 	 	 1818 	 	 0 
  1 	 	 746 	 	 417 	 	 1 	 	 1181 	 	 1554 	 	 183 
  2 	 	 117 	 	 71 	 	 10 	 	 1463 	 	 1666 	 	 188 
  3 	 	 376 	 	 571 	 	 1 	 	 46 	 	 467 	 	 122 
  4 	 	 747 	 	 114 	 	 7 	 	 304 	 	 504 	 	 125 
  5 	 	 576 	 	 920 	 	 5 	 	 1369 	 	 1737 	 	 155 
  6 	 	 160 	 	 791 	 	 5 	 	 1301 	 	 1564 	 	 118 
  7 	 	 48 	 	 45 	 	 9 	 	 1332 	 	 1818 	 	 133 
  8 	 	 296 	 	 635 	 	 3 	 	 815 	 	 1138 	 	 121 
  9 	 	 0 	 	 720 	 	 5 	 	 370 	 	 600 	 	 172 
  10 	 	 747 	 	 184 	 	 6 	 	 1343 	 	 1818 	 	 108 
  11 	 	 614 	 	 639 	 	 10 	 	 -179 	 	 204 	 	 166 
  12 	 	 151 	 	 523 	 	 3 	 	 676 	 	 1070 	 	 198 
  13 	 	 478 	 	 9 	 	 82 	 	 294 	 	 540 	 	 101 
  14 	 	 189 	 	 842 	 	 70 	 	 855 	 	 1252 	 	 137 
  15 	 	 901 	 	 168 	 	 1 	 	 821 	 	 1028 	 	 181 
  16 	 	 864 	 	 839 	 	 4 	 	 891 	 	 1169 	 	 175 
  17 	 	 892 	 	 39 	 	 5 	 	 433 	 	 665 	 	 139 
  18 	 	 102 	 	 846 	 	 2 	 	 373 	 	 580 	 	 171 
  19 	 	 807 	 	 443 	 	 61 	 	 1174 	 	 1452 	 	 169 
  20 	 	 560 	 	 890 	 	 68 	 	 638 	 	 911 	 	 121 
  21 	 	 312 	 	 745 	 	 3 	 	 401 	 	 766 	 	 167 
  22 	 	 699 	 	 793 	 	 10 	 	 1053 	 	 1500 	 	 135 
  23 	 	 540 	 	 290 	 	 8 	 	 1358 	 	 1716 	 	 102 
  24 	 	 4 	 	 829 	 	 5 	 	 1538 	 	 1818 	 	 151 
  25 	 	 416 	 	 417 	 	 9 	 	 -135 	 	 339 	 	 200 
  26 	 	 252 	 	 245 	 	 1 	 	 29 	 	 468 	 	 174 
  27 	 	 838 	 	 427 	 	 6 	 	 434 	 	 662 	 	 145 
  28 	 	 549 	 	 438 	 	 7 	 	 -222 	 	 272 	 	 163 
  29 	 	 49 	 	 141 	 	 6 	 	 1459 	 	 1818 	 	 103 
  30 	 	 725 	 	 970 	 	 2 	 	 613 	 	 1080 	 	 149 
  31 	 	 681 	 	 763 	 	 4 	 	 564 	 	 802 	 	 110 
  32 	 	 50 	 	 564 	 	 1 	 	 1356 	 	 1706 	 	 141 
  33 	 	 66 	 	 699 	 	 95 	 	 423 	 	 663 	 	 115 
  34 	 	 655 	 	 930 	 	 5 	 	 1012 	 	 1233 	 	 166 
  35 	 	 535 	 	 60 	 	 71 	 	 91 	 	 579 	 	 126 
  36 	 	 23 	 	 257 	 	 7 	 	 1268 	 	 1675 	 	 153 
  37 	 	 213 	 	 625 	 	 8 	 	 243 	 	 487 	 	 125 
  38 	 	 877 	 	 576 	 	 1 	 	 1098 	 	 1584 	 	 126 
  39 	 	 233 	 	 914 	 	 92 	 	 965 	 	 1428 	 	 199 
  40 	 	 160 	 	 945 	 	 9 	 	 807 	 	 1241 	 	 110 
  41 	 	 762 	 	 178 	 	 6 	 	 797 	 	 1093 	 	 109 
  42 	 	 593 	 	 475 	 	 10 	 	 -154 	 	 339 	 	 147 
  43 	 	 119 	 	 302 	 	 6 	 	 362 	 	 646 	 	 200 
  44 	 	 114 	 	 92 	 	 2 	 	 1239 	 	 1517 	 	 146 
  45 	 	 172 	 	 842 	 	 57 	 	 273 	 	 713 	 	 196 
  46 	 	 465 	 	 852 	 	 80 	 	 1172 	 	 1428 	 	 108 
  47 	 	 482 	 	 107 	 	 6 	 	 1174 	 	 1586 	 	 153 
  48 	 	 334 	 	 841 	 	 6 	 	 855 	 	 1224 	 	 157 
  49 	 	 35 	 	 977 	 	 3 	 	 449 	 	 732 	 	 138 
  50 	 	 642 	 	 700 	 	 4 	 	 1201 	 	 1519 	 	 177 
  51 	 	 353 	 	 29 	 	 10 	 	 306 	 	 542 	 	 110 
  52 	 	 376 	 	 582 	 	 9 	 	 493 	 	 935 	 	 159 
  53 	 	 980 	 	 809 	 	 2 	 	 1385 	 	 1818 	 	 180 
  54 	 	 766 	 	 429 	 	 74 	 	 164 	 	 650 	 	 137 
  55 	 	 38 	 	 334 	 	 7 	 	 1391 	 	 1599 	 	 150 
  56 	 	 504 	 	 446 	 	 4 	 	 1089 	 	 1485 	 	 173 
  57 	 	 274 	 	 91 	 	 1 	 	 271 	 	 720 	 	 140 
  58 	 	 323 	 	 85 	 	 3 	 	 296 	 	 496 	 	 165 
  59 	 	 207 	 	 519 	 	 1 	 	 324 	 	 765 	 	 112 
  60 	 	 267 	 	 340 	 	 6 	 	 1149 	 	 1465 	 	 184 
  61 	 	 558 	 	 804 	 	 8 	 	 -106 	 	 373 	 	 174 
  62 	 	 768 	 	 710 	 	 7 	 	 46 	 	 527 	 	 118 
  63 	 	 96 	 	 344 	 	 2 	 	 472 	 	 746 	 	 106 
  64 	 	 154 	 	 664 	 	 86 	 	 13 	 	 421 	 	 191 
  65 	 	 706 	 	 161 	 	 4 	 	 328 	 	 761 	 	 116 
  66 	 	 834 	 	 484 	 	 77 	 	 587 	 	 939 	 	 102 
  67 	 	 387 	 	 86 	 	 3 	 	 951 	 	 1397 	 	 100 
  68 	 	 308 	 	 896 	 	 3 	 	 610 	 	 892 	 	 109 
  69 	 	 273 	 	 6 	 	 6 	 	 810 	 	 1287 	 	 183 
  70 	 	 681 	 	 834 	 	 4 	 	 747 	 	 1088 	 	 184 
  71 	 	 642 	 	 211 	 	 63 	 	 768 	 	 1070 	 	 166 
  72 	 	 76 	 	 93 	 	 7 	 	 1011 	 	 1495 	 	 185 
  73 	 	 469 	 	 177 	 	 81 	 	 1003 	 	 1336 	 	 113 
  74 	 	 965 	 	 206 	 	 6 	 	 447 	 	 824 	 	 111 
  75 	 	 4 	 	 218 	 	 10 	 	 219 	 	 649 	 	 187 
  76 	 	 409 	 	 392 	 	 4 	 	 297 	 	 720 	 	 154 
  77 	 	 830 	 	 131 	 	 6 	 	 321 	 	 544 	 	 188 
  78 	 	 734 	 	 879 	 	 6 	 	 759 	 	 1252 	 	 199 
  79 	 	 188 	 	 327 	 	 8 	 	 324 	 	 681 	 	 193 
  80 	 	 989 	 	 544 	 	 10 	 	 1160 	 	 1656 	 	 168 
  81 	 	 408 	 	 408 	 	 63 	 	 290 	 	 498 	 	 196 
  82 	 	 163 	 	 354 	 	 69 	 	 536 	 	 777 	 	 184 
  83 	 	 25 	 	 50 	 	 5 	 	 890 	 	 1188 	 	 124 
  84 	 	 555 	 	 963 	 	 9 	 	 1312 	 	 1807 	 	 148 
  85 	 	 222 	 	 816 	 	 2 	 	 315 	 	 570 	 	 133 
  86 	 	 738 	 	 383 	 	 10 	 	 867 	 	 1344 	 	 116 
  87 	 	 273 	 	 91 	 	 6 	 	 1456 	 	 1664 	 	 144 
  88 	 	 416 	 	 975 	 	 10 	 	 321 	 	 530 	 	 157 
  89 	 	 788 	 	 312 	 	 65 	 	 1361 	 	 1818 	 	 197 
  90 	 	 18 	 	 397 	 	 8 	 	 1343 	 	 1818 	 	 104 
  91 	 	 9 	 	 133 	 	 10 	 	 750 	 	 1231 	 	 190 
  92 	 	 35 	 	 765 	 	 4 	 	 382 	 	 588 	 	 155 
  93 	 	 812 	 	 849 	 	 1 	 	 927 	 	 1265 	 	 141 
  94 	 	 68 	 	 226 	 	 3 	 	 184 	 	 562 	 	 181 
  95 	 	 204 	 	 284 	 	 8 	 	 1140 	 	 1413 	 	 168 
  96 	 	 324 	 	 165 	 	 87 	 	 250 	 	 602 	 	 176 
  97 	 	 691 	 	 676 	 	 66 	 	 724 	 	 1148 	 	 117 
  98 	 	 188 	 	 179 	 	 7 	 	 1345 	 	 1711 	 	 121 
  99 	 	 632 	 	 790 	 	 9 	 	 1222 	 	 1433 	 	 151 
  100 	 	 817 	 	 547 	 	 3 	 	 923 	 	 1303 	 	 193 
 